code/experiments/eil51_sub/eil51_n11.tsp
NAME : eil51_n11
COMMENT : 11-city problem (Christofides/Eilon)
TYPE : TSP
DIMENSION : 11
EDGE_WEIGHT_TYPE : CEIL_2D
NODE_COORD_SECTION
1 37 52
2 31 62
3 31 32
4 52 41
5 13 13
6 62 42
7 42 57
8 37 69
9 32 22
10 56 37
11 30 40
EOF
