code/experiments/eil51_sub/eil51_n11.opt.tour
11
0 10 2 4 8 9 5 3 6 7 
1 
